c
c start with comments
c
p cnf 26 15
24 -18 -8 0
-12 5 -14 0
-26 -23 0
-7 25 -10 0
-19 6 24 0
11 -25 -1 0
26 -5 -17 -9 0
-13 -15 0
-10 -12 19 0
2 22 0
-14 -6 11 20 9 0
15 1 -16 0
-4 -3 9 -25 21 -8 0
20 -11 21 13 0
-22 16 0